c Result of efficient AIG-to-CNF conversion using package CNF
p cnf 400 1555
-2 -3 -185 0
-2 3 185 0
2 3 -185 0
2 -3 185 0
-3 -4 -129 0
-3 4 129 0
3 4 -129 0
3 -4 129 0
-4 5 96 0
-4 5 -56 -69 0
-4 56 69 96 0
-4 5 56 69 0
-4 -56 -69 96 0
4 -5 -96 0
4 56 -69 -96 0
4 -5 56 -69 0
4 -56 69 -96 0
4 -5 -56 69 0
-5 6 39 0
-5 6 55 0
5 -6 0
5 -39 -55 0
6 -7 -23 0
-6 7 0
-6 23 0
-7 -8 -15 0
-7 8 15 0
7 8 -15 0
7 -8 15 0
-8 11 13 0
-8 9 13 0
-8 9 11 0
8 -9 -13 0
8 -9 -11 0
8 -11 -13 0
9 -383 -10 0
-9 383 0
-9 10 0
10 378 -381 0
10 -378 381 0
-10 -378 -381 0
-10 378 381 0
-11 381 12 0
-11 -381 -12 0
11 -381 12 0
11 381 -12 0
-12 379 381 0
-12 377 -379 0
-12 375 379 0
12 -377 -379 0
12 -375 379 -381 0
13 -381 383 14 0
-13 381 0
-13 -14 0
-13 -383 0
14 -375 -379 0
-14 375 0
-14 379 0
15 16 -17 0
15 -16 17 0
-15 -16 -17 0
-15 16 17 0
16 -373 9 0
-16 373 0
-16 -9 0
17 -18 20 0
17 18 -20 0
-17 18 20 0
-17 -18 -20 0
-18 381 19 0
-18 -381 -19 0
18 -381 19 0
18 381 -19 0
-19 379 381 0
-19 371 -379 0
-19 377 379 0
19 -371 -379 0
19 -377 379 -381 0
-20 373 21 0
-20 -373 -21 0
20 -373 21 0
20 373 -21 0
-21 10 22 0
-21 375 383 0
-21 375 22 0
-21 383 10 0
21 -375 -10 0
21 -383 -22 0
-22 -378 381 0
-22 -373 -381 0
-22 373 378 0
22 373 -378 -381 0
22 -373 378 381 0
-23 -24 -31 0
-23 24 31 0
23 24 -31 0
23 -24 31 0
-24 27 29 0
-24 25 29 0
-24 25 27 0
24 -25 -29 0
24 -25 -27 0
24 -27 -29 0
25 -370 -26 0
-25 370 0
-25 26 0
26 372 -380 0
26 -372 380 0
-26 -372 -380 0
-26 372 380 0
-27 380 28 0
-27 -380 -28 0
27 -380 28 0
27 380 -28 0
-28 369 380 0
-28 -369 374 0
-28 369 385 0
28 -369 -374 0
28 369 -380 -385 0
29 370 -380 30 0
-29 -370 0
-29 380 0
-29 -30 0
30 -369 -385 0
-30 369 0
-30 385 0
31 32 -33 0
31 -32 33 0
-31 -32 -33 0
-31 32 33 0
32 -386 25 0
-32 386 0
-32 -25 0
33 -34 36 0
33 34 -36 0
-33 34 36 0
-33 -34 -36 0
-34 380 35 0
-34 -380 -35 0
34 -380 35 0
34 380 -35 0
-35 -369 382 0
-35 369 380 0
-35 369 374 0
35 -369 -382 0
35 369 -374 -380 0
-36 386 37 0
-36 -386 -37 0
36 -386 37 0
36 386 -37 0
-37 26 38 0
-37 370 385 0
-37 385 38 0
-37 370 26 0
37 -385 -26 0
37 -370 -38 0
-38 -372 -386 0
-38 380 386 0
-38 372 -380 0
38 -372 -380 386 0
38 372 380 -386 0
-39 -40 -47 0
-39 40 47 0
39 40 -47 0
39 -40 47 0
-40 43 45 0
-40 41 45 0
-40 41 43 0
40 -41 -45 0
40 -41 -43 0
40 -43 -45 0
41 -388 -42 0
-41 388 0
-41 42 0
42 390 -392 0
42 -390 392 0
-42 -390 -392 0
-42 390 392 0
-43 390 44 0
-43 -390 -44 0
43 -390 44 0
43 390 -44 0
-44 390 394 0
-44 393 -394 0
-44 387 394 0
44 -393 -394 0
44 -387 -390 394 0
45 388 -390 46 0
-45 -388 0
-45 390 0
-45 -46 0
46 -387 -394 0
-46 387 0
-46 394 0
47 48 -49 0
47 -48 49 0
-47 -48 -49 0
-47 48 49 0
48 -396 41 0
-48 396 0
-48 -41 0
49 -50 52 0
49 50 -52 0
-49 50 52 0
-49 -50 -52 0
-50 390 51 0
-50 -390 -51 0
50 -390 51 0
50 390 -51 0
-51 390 394 0
-51 -394 397 0
-51 393 394 0
51 -394 -397 0
51 -390 -393 394 0
-52 396 53 0
-52 -396 -53 0
52 -396 53 0
52 396 -53 0
-53 42 54 0
-53 387 388 0
-53 387 54 0
-53 388 42 0
53 -387 -42 0
53 -388 -54 0
-54 -390 -396 0
-54 392 396 0
-54 390 -392 0
54 -390 -392 396 0
54 390 392 -396 0
55 -7 23 0
55 7 -23 0
-55 7 23 0
-55 -7 -23 0
-56 57 58 0
-56 -57 -58 0
56 -57 58 0
56 57 -58 0
57 -40 -47 0
-57 40 0
-57 47 0
-58 -59 -62 0
-58 59 62 0
58 59 -62 0
58 -59 62 0
-59 60 61 0
59 -60 0
59 -61 0
60 -50 -52 0
-60 50 0
-60 52 0
61 -396 41 -49 0
-61 396 0
-61 -41 0
-61 49 0
62 63 -64 0
62 -63 64 0
-62 -63 -64 0
-62 63 64 0
63 -388 396 -398 0
63 -388 -396 398 0
-63 388 0
-63 -396 -398 0
-63 396 398 0
64 -65 67 0
64 65 -67 0
-64 65 67 0
-64 -65 -67 0
-65 390 66 0
-65 -390 -66 0
65 -390 66 0
65 390 -66 0
-66 394 397 0
-66 -394 395 0
-66 390 394 0
66 -394 -395 0
66 -390 394 -397 0
-67 396 68 0
-67 -396 -68 0
67 -396 68 0
67 396 -68 0
-68 42 54 0
-68 387 393 0
-68 393 54 0
-68 387 42 0
68 -393 -42 0
68 -387 -54 0
69 -70 83 0
69 70 -83 0
-69 70 83 0
-69 -70 -83 0
-70 71 72 0
-70 -71 -72 0
70 -71 72 0
70 71 -72 0
71 -8 -15 0
-71 8 0
-71 15 0
-72 -73 -76 0
-72 73 76 0
72 73 -76 0
72 -73 76 0
-73 74 75 0
73 -74 0
73 -75 0
74 -18 -20 0
-74 18 0
-74 20 0
75 -373 9 -17 0
-75 373 0
-75 -9 0
-75 17 0
76 77 -78 0
76 -77 78 0
-76 -77 -78 0
-76 77 78 0
77 373 -383 -384 0
77 -373 -383 384 0
-77 383 0
-77 -373 -384 0
-77 373 384 0
78 -79 81 0
78 79 -81 0
-78 79 81 0
-78 -79 -81 0
-79 381 80 0
-79 -381 -80 0
79 -381 80 0
79 381 -80 0
-80 379 381 0
-80 -379 399 0
-80 371 379 0
80 -379 -399 0
80 -371 379 -381 0
-81 373 82 0
-81 -373 -82 0
81 -373 82 0
81 373 -82 0
-82 10 22 0
-82 375 377 0
-82 377 22 0
-82 375 10 0
82 -377 -10 0
82 -375 -22 0
-83 84 85 0
-83 -84 -85 0
83 -84 85 0
83 84 -85 0
84 -24 -31 0
-84 24 0
-84 31 0
-85 -86 -89 0
-85 86 89 0
85 86 -89 0
85 -86 89 0
-86 87 88 0
86 -87 0
86 -88 0
87 -34 -36 0
-87 34 0
-87 36 0
88 -386 25 -33 0
-88 386 0
-88 -25 0
-88 33 0
89 90 -91 0
89 -90 91 0
-89 -90 -91 0
-89 90 91 0
90 -370 386 -389 0
90 -370 -386 389 0
-90 370 0
-90 -386 -389 0
-90 386 389 0
91 -92 94 0
91 92 -94 0
-91 92 94 0
-91 -92 -94 0
-92 380 93 0
-92 -380 -93 0
92 -380 93 0
92 380 -93 0
-93 369 382 0
-93 368 -369 0
-93 369 380 0
93 -368 -369 0
93 369 -380 -382 0
-94 386 95 0
-94 -386 -95 0
94 -386 95 0
94 386 -95 0
-95 26 38 0
-95 374 385 0
-95 374 38 0
-95 385 26 0
95 -374 -26 0
95 -385 -38 0
-96 97 106 0
-96 106 107 0
-96 97 107 0
96 -97 -107 0
96 -106 -107 0
96 -97 -106 0
-97 98 103 0
-97 98 105 0
97 -98 0
97 -103 -105 0
98 -99 -101 0
-98 99 0
-98 101 0
-99 13 100 0
-99 -13 -100 0
99 -13 100 0
99 13 -100 0
-100 9 11 0
-100 -9 -11 0
100 -9 11 0
100 9 -11 0
-101 29 102 0
-101 -29 -102 0
101 -29 102 0
101 29 -102 0
-102 25 27 0
-102 -25 -27 0
102 -25 27 0
102 25 -27 0
-103 45 104 0
-103 -45 -104 0
103 -45 104 0
103 45 -104 0
-104 41 43 0
-104 -41 -43 0
104 -41 43 0
104 41 -43 0
105 -99 101 0
105 99 -101 0
-105 99 101 0
-105 -99 -101 0
-106 -39 -55 0
-106 39 55 0
106 39 -55 0
106 -39 55 0
-107 108 123 0
-107 123 124 0
-107 108 124 0
107 -123 -124 0
107 -108 -123 0
107 -108 -124 0
-108 109 118 0
-108 109 122 0
108 -109 0
108 -118 -122 0
109 -110 -114 0
-109 110 0
-109 114 0
-110 111 112 0
-110 -111 -112 0
110 -111 112 0
110 111 -112 0
111 379 -381 0
111 -381 383 0
-111 381 0
-111 -379 -383 0
-112 381 113 0
-112 -381 -113 0
112 -381 113 0
112 381 -113 0
-113 379 383 0
-113 375 -379 0
-113 379 381 0
113 -375 -379 0
113 379 -381 -383 0
-114 115 116 0
-114 -115 -116 0
114 -115 116 0
114 115 -116 0
115 370 -380 0
115 369 -380 0
-115 380 0
-115 -369 -370 0
-116 380 117 0
-116 -380 -117 0
116 -380 117 0
116 380 -117 0
-117 -369 385 0
-117 369 380 0
-117 369 370 0
117 -369 -385 0
117 369 -370 -380 0
-118 119 120 0
-118 -119 -120 0
118 -119 120 0
118 119 -120 0
119 388 -390 0
119 -390 394 0
-119 390 0
-119 -388 -394 0
-120 390 121 0
-120 -390 -121 0
120 -390 121 0
120 390 -121 0
-121 388 394 0
-121 387 -394 0
-121 390 394 0
121 -387 -394 0
121 -388 -390 394 0
122 -110 114 0
122 110 -114 0
-122 110 114 0
-122 -110 -114 0
-123 -103 -105 0
-123 103 105 0
123 103 -105 0
123 -103 105 0
124 -125 -127 -128 0
124 -125 -126 -128 0
124 -126 -127 -128 0
-124 125 127 0
-124 126 127 0
-124 128 0
-124 125 126 0
125 -379 -383 0
-125 379 0
-125 383 0
126 -369 -370 0
-126 369 0
-126 370 0
127 -388 -394 0
-127 388 0
-127 394 0
-128 -118 -122 0
-128 118 122 0
128 118 -122 0
128 -118 122 0
129 -130 132 0
129 130 -132 0
-129 130 132 0
-129 -130 -132 0
-130 131 69 0
-130 56 131 0
130 -131 0
130 -56 -69 0
131 -70 -83 0
-131 70 0
-131 83 0
-132 -133 -150 0
-132 133 150 0
132 133 -150 0
132 -133 150 0
-133 -134 -135 0
-133 134 135 0
133 134 -135 0
133 -134 135 0
-134 59 62 0
-134 57 62 0
-134 57 59 0
134 -57 -62 0
134 -57 -59 0
134 -59 -62 0
135 -136 139 0
135 136 -139 0
-135 136 139 0
-135 -136 -139 0
-136 137 138 0
136 -137 0
136 -138 0
137 -65 -67 0
-137 65 0
-137 67 0
138 -63 -64 0
-138 63 0
-138 64 0
-139 140 141 0
-139 -140 -141 0
139 -140 141 0
139 140 -141 0
140 -367 63 0
-140 367 0
-140 -63 0
-141 -142 -145 0
-141 142 145 0
141 142 -145 0
141 -142 145 0
-142 367 143 0
-142 -367 -143 0
142 -367 143 0
142 367 -143 0
-143 387 144 0
-143 -396 -398 144 0
-143 396 398 144 0
143 -144 0
143 -387 396 -398 0
143 -387 -396 398 0
144 367 -388 -396 -398 0
144 -367 -388 396 398 0
-144 396 -398 0
-144 -367 -396 0
-144 388 0
-144 367 398 0
145 -146 148 0
145 146 -148 0
-145 146 148 0
-145 -146 -148 0
-146 390 147 0
-146 -390 -147 0
146 -390 147 0
146 390 -147 0
-147 394 395 0
-147 366 -394 0
-147 390 394 0
147 -366 -394 0
147 -390 394 -395 0
-148 396 149 0
-148 -396 -149 0
148 -396 149 0
148 396 -149 0
-149 42 54 0
-149 393 397 0
-149 397 54 0
-149 393 42 0
149 -397 -42 0
149 -393 -54 0
150 -151 168 0
150 151 -168 0
-150 151 168 0
-150 -151 -168 0
-151 -152 -153 0
-151 152 153 0
151 152 -153 0
151 -152 153 0
-152 73 76 0
-152 71 76 0
-152 71 73 0
152 -71 -76 0
152 -71 -73 0
152 -73 -76 0
153 -154 157 0
153 154 -157 0
-153 154 157 0
-153 -154 -157 0
-154 155 156 0
154 -155 0
154 -156 0
155 -79 -81 0
-155 79 0
-155 81 0
156 -77 -78 0
-156 77 0
-156 78 0
-157 158 159 0
-157 -158 -159 0
157 -158 159 0
157 158 -159 0
158 -365 77 0
-158 365 0
-158 -77 0
-159 -160 -163 0
-159 160 163 0
159 160 -163 0
159 -160 163 0
-160 365 161 0
-160 -365 -161 0
160 -365 161 0
160 365 -161 0
-161 375 162 0
-161 -373 -384 162 0
-161 373 384 162 0
161 -162 0
161 373 -375 -384 0
161 -373 -375 384 0
162 -365 373 -383 384 0
162 365 -373 -383 -384 0
-162 373 -384 0
-162 365 384 0
-162 383 0
-162 -365 -373 0
163 -164 166 0
163 164 -166 0
-163 164 166 0
-163 -164 -166 0
-164 381 165 0
-164 -381 -165 0
164 -381 165 0
164 381 -165 0
-165 379 399 0
-165 364 -379 0
-165 379 381 0
165 -364 -379 0
165 379 -381 -399 0
-166 373 167 0
-166 -373 -167 0
166 -373 167 0
166 373 -167 0
-167 10 22 0
-167 371 377 0
-167 371 22 0
-167 377 10 0
167 -371 -10 0
167 -377 -22 0
-168 -169 -170 0
-168 169 170 0
168 169 -170 0
168 -169 170 0
-169 86 89 0
-169 84 89 0
-169 84 86 0
169 -84 -89 0
169 -84 -86 0
169 -86 -89 0
170 -171 174 0
170 171 -174 0
-170 171 174 0
-170 -171 -174 0
-171 172 173 0
171 -172 0
171 -173 0
172 -92 -94 0
-172 92 0
-172 94 0
173 -90 -91 0
-173 90 0
-173 91 0
-174 175 176 0
-174 -175 -176 0
174 -175 176 0
174 175 -176 0
175 -391 90 0
-175 391 0
-175 -90 0
-176 -177 -180 0
-176 177 180 0
176 177 -180 0
176 -177 180 0
-177 391 178 0
-177 -391 -178 0
177 -391 178 0
177 391 -178 0
-178 385 179 0
-178 -386 -389 179 0
-178 386 389 179 0
178 -179 0
178 -385 386 -389 0
178 -385 -386 389 0
179 -370 386 389 -391 0
179 -370 -386 -389 391 0
-179 386 391 0
-179 -386 389 0
-179 370 0
-179 -389 -391 0
180 -181 183 0
180 181 -183 0
-180 181 183 0
-180 -181 -183 0
-181 380 182 0
-181 -380 -182 0
181 -380 182 0
181 380 -182 0
-182 369 380 0
-182 -369 376 0
-182 368 369 0
182 -369 -376 0
182 -368 369 -380 0
-183 386 184 0
-183 -386 -184 0
183 -386 184 0
183 386 -184 0
-184 26 38 0
-184 374 382 0
-184 382 38 0
-184 374 26 0
184 -382 -26 0
184 -374 -38 0
185 -186 339 0
185 186 -339 0
-185 186 339 0
-185 -186 -339 0
186 187 -332 0
186 -187 332 0
-186 -187 -332 0
-186 187 332 0
-187 -188 -237 0
-187 188 237 0
187 188 -237 0
187 -188 237 0
188 189 -220 0
188 -189 220 0
-188 -189 -220 0
-188 189 220 0
189 -190 -219 0
189 -211 -219 0
-189 219 0
-189 190 211 0
190 -191 -203 0
-190 191 0
-190 203 0
191 192 -196 0
191 -192 196 0
-191 -192 -196 0
-191 192 196 0
-192 -193 -194 0
-192 193 194 0
192 193 -194 0
192 -193 194 0
-193 390 395 0
-193 390 394 0
-193 394 -397 0
-193 -390 -394 -395 0
193 390 -394 -395 0
193 -390 394 397 0
193 -390 -394 395 0
194 -388 -195 0
-194 388 0
-194 195 0
-195 -396 -398 0
-195 396 398 0
195 396 -398 0
195 -396 398 0
196 396 -201 0
196 -396 197 199 0
196 396 -197 0
-196 -396 -197 0
-196 -396 -199 0
-196 396 197 201 0
197 -393 -198 0
-197 393 0
-197 198 0
-198 -390 -392 0
-198 390 392 0
198 390 -392 0
198 -390 392 0
199 -387 200 0
-199 387 0
-199 -200 0
-200 390 392 0
200 -390 0
200 -392 0
201 -387 -202 0
-201 387 0
-201 202 0
202 -390 -392 0
-202 390 0
-202 392 0
-203 208 209 0
-203 204 209 0
-203 204 208 0
203 -204 -209 0
203 -204 -208 0
203 -208 -209 0
204 396 -206 0
204 -396 205 206 0
204 396 -207 0
-204 -396 -205 0
-204 -396 -206 0
-204 396 206 207 0
205 -388 200 0
-205 388 0
-205 -200 0
206 -387 -198 0
-206 387 0
-206 198 0
207 -388 -202 0
-207 388 0
-207 202 0
-208 -393 394 0
-208 390 394 0
-208 390 397 0
-208 -390 -394 -397 0
208 -390 -394 397 0
208 -390 393 394 0
208 390 -394 -397 0
209 -396 210 0
-209 396 0
-209 -210 0
210 -388 -198 0
-210 388 0
-210 198 0
211 -212 -214 0
-211 212 0
-211 214 0
-212 204 213 0
-212 -204 -213 0
212 -204 213 0
212 204 -213 0
-213 -208 -209 0
-213 208 209 0
213 208 -209 0
213 -208 209 0
-214 215 217 0
214 -215 0
214 -217 0
215 -210 -216 0
-215 210 0
-215 216 0
-216 390 394 0
-216 -390 -393 -394 0
-216 -387 394 0
-216 390 393 0
216 387 -390 394 0
216 -390 393 -394 0
216 390 -393 -394 0
217 387 394 -218 0
217 393 -394 -218 0
-217 218 0
-217 -393 -394 0
-217 -387 394 0
218 388 -390 46 0
-218 -388 0
-218 390 0
-218 -46 0
-219 191 203 0
219 -191 0
219 -203 0
220 -221 236 0
220 221 -236 0
-220 221 236 0
-220 -221 -236 0
-221 222 228 0
-221 -222 -228 0
221 -222 228 0
221 222 -228 0
-222 223 224 0
-222 -223 -224 0
222 -223 224 0
222 223 -224 0
-223 390 394 0
-223 366 390 0
-223 394 -395 0
-223 -366 -390 -394 0
223 366 -390 -394 0
223 -366 390 -394 0
223 -390 394 395 0
-224 225 227 0
-224 -397 -198 225 0
224 -225 0
224 397 -227 0
224 198 -227 0
-225 397 226 0
-225 -396 226 0
-225 198 226 0
225 -226 0
225 396 -397 -198 0
226 -390 -392 -393 396 0
-226 393 0
-226 -396 0
-226 390 0
-226 392 0
227 393 -396 0
227 -396 -200 0
-227 396 0
-227 -393 200 0
-228 229 230 0
-228 -229 -230 0
228 -229 230 0
228 229 -230 0
229 -367 194 0
-229 367 0
-229 -194 0
-230 388 232 233 0
-230 231 232 233 0
230 -233 0
230 -232 0
230 -388 -231 0
231 367 -396 -398 0
-231 398 0
-231 396 0
-231 -367 0
232 367 -387 -195 0
-232 -367 0
-232 387 0
-232 195 0
233 -367 388 235 0
233 -367 -234 235 0
-233 367 0
-233 -235 0
-233 -388 234 0
-234 396 398 0
234 -396 0
234 -398 0
235 -387 -195 0
-235 387 0
-235 195 0
-236 194 196 0
-236 193 194 0
-236 193 196 0
236 -193 -194 0
236 -194 -196 0
236 -193 -196 0
237 -238 286 0
237 238 -286 0
-237 238 286 0
-237 -238 -286 0
238 239 -268 0
238 -239 268 0
-238 -239 -268 0
-238 239 268 0
239 -240 -267 0
239 -240 -258 0
239 -258 -267 0
-239 258 267 0
-239 240 267 0
-239 240 258 0
240 -241 -253 0
-240 241 0
-240 253 0
241 -242 249 0
241 242 -249 0
-241 242 249 0
-241 -242 -249 0
242 386 -245 0
242 -386 245 247 0
242 386 -243 0
-242 -386 -245 0
-242 386 243 245 0
-242 -386 -247 0
243 -370 -244 0
-243 370 0
-243 244 0
244 -372 -380 0
-244 372 0
-244 380 0
245 -385 -246 0
-245 385 0
-245 246 0
-246 -372 -380 0
-246 372 380 0
246 372 -380 0
246 -372 380 0
247 -370 248 0
-247 370 0
-247 -248 0
-248 372 380 0
248 -372 0
248 -380 0
-249 250 252 0
-249 -250 -252 0
249 -250 252 0
249 250 -252 0
250 -386 251 0
-250 386 0
-250 -251 0
251 -370 -246 0
-251 370 0
-251 246 0
-252 369 -374 0
-252 369 380 0
-252 380 382 0
-252 -369 -380 -382 0
252 -369 380 -382 0
252 -369 -380 382 0
252 369 374 -380 0
253 -254 -257 0
-253 254 0
-253 257 0
254 -380 256 0
254 -255 256 0
254 380 -255 -251 0
-254 -380 -256 0
-254 380 255 0
-254 251 -256 0
255 -369 -374 0
-255 369 0
-255 374 0
-256 369 385 0
-256 -369 374 0
256 -369 -374 0
256 369 -385 0
-257 -370 246 0
-257 370 380 0
-257 370 -30 0
257 -370 -246 0
257 370 -380 30 0
-258 259 263 0
-258 -259 -263 0
258 -259 263 0
258 259 -263 0
259 260 -262 0
-259 -260 0
-259 262 0
260 -386 -261 0
260 -385 -386 248 0
-260 386 0
-260 -248 261 0
-260 385 261 0
261 -374 -246 0
-261 374 0
-261 246 0
-262 385 386 261 0
-262 386 244 261 0
262 -261 0
262 -386 0
262 -385 -244 0
-263 -264 -265 0
-263 264 265 0
263 264 -265 0
263 -264 265 0
-264 368 380 0
-264 369 380 0
-264 369 -382 0
-264 -368 -369 -380 0
264 368 -369 -380 0
264 369 -380 382 0
264 -368 -369 380 0
265 -370 -266 0
-265 370 0
-265 266 0
-266 -386 -389 0
-266 386 389 0
266 386 -389 0
266 -386 389 0
267 -242 -250 0
267 -250 -252 0
267 -242 -252 0
-267 250 252 0
-267 242 250 0
-267 242 252 0
268 -269 270 0
268 269 -270 0
-268 269 270 0
-268 -269 -270 0
269 -264 -265 0
269 260 -262 -264 0
269 260 -262 -265 0
-269 -260 264 0
-269 -260 265 0
-269 264 265 0
-269 262 264 0
-269 262 265 0
-270 -271 -278 0
-270 271 278 0
270 271 -278 0
270 -271 278 0
-271 272 273 0
-271 -272 -273 0
271 -272 273 0
271 272 -273 0
-272 369 380 0
-272 -369 -376 -380 0
-272 376 380 0
-272 -368 369 0
272 368 369 -380 0
272 -369 376 -380 0
272 -369 -376 380 0
-273 274 277 0
-273 -382 -246 274 0
273 -274 0
273 382 -277 0
273 246 -277 0
-274 275 276 0
-274 372 275 0
-274 374 275 0
274 -275 0
274 -372 -374 -276 0
275 -372 380 -382 386 0
275 372 -380 -382 386 0
-275 -386 0
-275 372 380 0
-275 382 0
-275 -372 -380 0
276 -380 386 0
-276 380 0
-276 -386 0
277 374 -386 0
277 -386 -248 0
-277 386 0
-277 -374 248 0
278 279 -285 0
278 -279 285 0
-278 -279 -285 0
-278 279 285 0
-279 370 281 282 0
-279 280 281 282 0
279 -282 0
279 -281 0
279 -370 -280 0
280 -386 -389 391 0
-280 386 0
-280 389 0
-280 -391 0
281 -385 391 -266 0
-281 385 0
-281 266 0
-281 -391 0
282 370 -391 284 0
282 -391 -283 284 0
-282 391 0
-282 -284 0
-282 -370 283 0
-283 386 389 0
283 -386 0
283 -389 0
284 -385 -266 0
-284 385 0
-284 266 0
285 -391 265 0
-285 391 0
-285 -265 0
-286 -287 -314 0
-286 287 314 0
286 287 -314 0
286 -287 314 0
287 -288 -298 0
287 -298 -307 0
287 -288 -307 0
-287 288 307 0
-287 298 307 0
-287 288 298 0
288 -289 -290 0
288 -290 -293 0
288 -289 -293 0
-288 290 293 0
-288 289 290 0
-288 289 293 0
-289 371 381 0
-289 -371 -379 -381 0
-289 -377 379 0
-289 379 381 0
289 377 379 -381 0
289 -371 -379 381 0
289 371 -379 -381 0
290 -373 291 0
-290 373 0
-290 -291 0
291 -383 -292 0
-291 383 0
-291 292 0
-292 -378 -381 0
-292 378 381 0
292 378 -381 0
292 -378 381 0
293 373 -296 0
293 -373 294 296 0
293 373 -297 0
-293 -373 -294 0
-293 -373 -296 0
-293 373 296 297 0
294 -383 295 0
-294 383 0
-294 -295 0
-295 378 381 0
295 -378 0
295 -381 0
296 -375 -292 0
-296 375 0
-296 292 0
297 -378 -381 -383 0
-297 378 0
-297 381 0
-297 383 0
298 -299 303 0
298 299 -303 0
-298 299 303 0
-298 -299 -303 0
299 373 -301 0
299 -373 300 302 0
299 373 -300 0
-299 -373 -300 0
-299 -373 -302 0
-299 373 300 301 0
300 -377 -292 0
-300 377 0
-300 292 0
301 -375 -378 -381 0
-301 375 0
-301 378 0
-301 381 0
302 -375 295 0
-302 375 0
-302 -295 0
-303 -304 -305 0
-303 304 305 0
303 304 -305 0
303 -304 305 0
-304 379 381 0
-304 -371 379 0
-304 381 399 0
-304 -379 -381 -399 0
304 -379 381 -399 0
304 -379 -381 399 0
304 371 379 -381 0
305 -383 -306 0
-305 383 0
-305 306 0
-306 -373 -384 0
-306 373 384 0
306 373 -384 0
306 -373 384 0
307 -308 -310 0
-307 308 0
-307 310 0
-308 293 309 0
-308 -293 -309 0
308 -293 309 0
308 293 -309 0
-309 -289 -290 0
-309 289 290 0
309 289 -290 0
309 -289 290 0
310 -291 -312 -313 0
310 311 -312 -313 0
-310 313 0
-310 312 0
-310 291 -311 0
-311 375 379 0
-311 377 -379 0
311 -377 -379 0
311 -375 379 0
-312 379 381 0
-312 -377 -379 -381 0
-312 377 381 0
-312 -375 379 0
312 375 379 -381 0
312 377 -379 -381 0
312 -377 -379 381 0
-313 383 -14 0
-313 -383 292 0
-313 381 383 0
313 -383 -292 0
313 -381 383 14 0
314 -315 331 0
314 315 -331 0
-314 315 331 0
-314 -315 -331 0
-315 -316 -323 0
-315 316 323 0
315 316 -323 0
315 -316 323 0
-316 317 319 0
-316 -317 -319 0
316 -317 319 0
316 317 -319 0
317 381 -318 0
317 -379 -381 318 0
317 -381 399 318 0
-317 381 318 0
-317 -381 -318 0
-317 379 -381 -399 0
318 -364 -379 0
-318 364 0
-318 379 0
-319 320 322 0
-319 -371 -292 320 0
319 -320 0
319 371 -322 0
319 292 -322 0
-320 -373 321 0
-320 292 321 0
-320 371 321 0
320 -321 0
320 -371 373 -292 0
321 373 -377 -378 -381 0
-321 -373 0
-321 381 0
-321 378 0
-321 377 0
322 -373 -295 0
322 -373 377 0
-322 373 0
-322 -377 295 0
323 324 -330 0
323 -324 330 0
-323 -324 -330 0
-323 324 330 0
-324 383 326 327 0
-324 325 326 327 0
324 -327 0
324 -326 0
324 -383 -325 0
325 365 -373 -384 0
-325 384 0
-325 373 0
-325 -365 0
326 365 -375 -306 0
-326 -365 0
-326 375 0
-326 306 0
327 -365 383 329 0
327 -365 -328 329 0
-327 365 0
-327 -329 0
-327 -383 328 0
-328 373 384 0
328 -373 0
328 -384 0
329 -375 -306 0
-329 375 0
-329 306 0
330 -365 305 0
-330 365 0
-330 -305 0
-331 304 305 0
-331 299 305 0
-331 299 304 0
331 -299 -305 0
331 -299 -304 0
331 -304 -305 0
332 -333 -337 0
332 -335 -337 0
332 -333 -335 0
-332 333 335 0
-332 335 337 0
-332 333 337 0
-333 240 334 0
-333 -240 -334 0
333 -240 334 0
333 240 -334 0
-334 -258 -267 0
-334 258 267 0
334 258 -267 0
334 -258 267 0
-335 307 336 0
-335 -307 -336 0
335 -307 336 0
335 307 -336 0
-336 -288 -298 0
-336 288 298 0
336 288 -298 0
336 -288 298 0
-337 -211 -338 0
-337 211 338 0
337 211 -338 0
337 -211 338 0
338 190 -219 0
-338 -190 0
-338 219 0
-339 340 362 0
-339 -337 362 -363 0
-339 337 340 363 0
-339 -337 340 -363 0
-339 337 362 363 0
339 -340 -362 0
339 337 -340 -363 0
339 -337 -340 363 0
339 337 -362 -363 0
339 -337 -362 363 0
340 -341 -357 0
340 -341 -358 359 0
340 -357 -358 359 0
340 -341 358 -359 0
340 -357 358 -359 0
-340 341 357 0
-340 341 -358 -359 0
-340 357 -358 -359 0
-340 357 358 359 0
-340 341 358 359 0
341 -348 -356 0
341 342 -344 -356 0
341 -342 344 -356 0
-341 356 0
-341 342 344 348 0
-341 -342 -344 348 0
342 -210 -343 216 0
342 210 -216 218 0
342 210 -343 -218 0
342 -210 216 218 0
-342 -210 -216 0
-342 343 -218 0
-342 210 216 218 0
-343 387 394 0
-343 393 -394 0
343 -393 -394 0
343 -387 394 0
-344 -345 -346 0
-344 345 346 0
344 345 -346 0
344 -345 346 0
345 -312 310 0
345 -313 310 0
-345 -310 0
-345 312 313 0
346 -347 253 0
346 -257 253 0
-346 -253 0
-346 347 257 0
-347 369 380 0
-347 374 380 0
-347 369 -385 0
-347 -369 -374 -380 0
347 -369 374 -380 0
347 -369 -374 380 0
347 369 -380 385 0
348 -349 -350 -352 -354 0
-348 354 0
-348 349 0
-348 352 0
-348 350 0
349 -125 -126 0
349 -126 -127 0
349 -125 -127 0
-349 125 127 0
-349 126 127 0
-349 125 126 0
-350 -14 -351 0
-350 14 351 0
350 14 -351 0
350 -14 351 0
351 -381 -383 0
-351 381 0
-351 383 0
352 30 -353 0
352 -30 353 0
-352 -30 -353 0
-352 30 353 0
353 -370 -380 0
-353 370 0
-353 380 0
354 46 -355 0
354 -46 355 0
-354 -46 -355 0
-354 46 355 0
355 -388 -390 0
-355 388 0
-355 390 0
-356 349 350 354 0
-356 349 352 354 0
-356 349 350 352 0
-356 350 352 354 0
356 -349 -350 0
356 -352 -354 0
356 -349 -354 0
356 -350 -354 0
356 -349 -352 0
356 -350 -352 0
-357 342 346 0
-357 345 346 0
-357 342 345 0
357 -342 -345 0
357 -345 -346 0
357 -342 -346 0
-358 212 214 0
-358 -212 -214 0
358 -212 214 0
358 212 -214 0
359 -360 361 0
359 360 -361 0
-359 360 361 0
-359 -360 -361 0
-360 -241 -253 0
-360 241 253 0
360 241 -253 0
360 -241 253 0
-361 -308 -310 0
-361 308 310 0
361 308 -310 0
361 -308 310 0
362 -358 -361 0
362 -360 -361 0
362 -358 -360 0
-362 358 360 0
-362 360 361 0
-362 358 361 0
363 -333 335 0
363 333 -335 0
-363 333 335 0
-363 -333 -335 0
-400 0
2 0

